23425
23855
23855
23855
23855
23959
23959
23959
24289
24289
24289
24289
24561
24561
24561
24561
24561
24561
24561
24561
24561
24561
24756
24756
24784
24784
24784
24784
24784
24784
24784
24784
24784
24784
24784
24784
24784
24784
24784
24864
24985
24985
24985
24985
24985
24985
24985
24985
24985
24985
24985
24985
24985
24985
24985
24989
24989
24989
24989
24989
24989
24989
24989
24989
24989
24989
24989
24989
24989
24989
24992
24992
24992
24992
24992
24992
24992
24992
24992
24992
24992
24992
24992
24992
24992
24992
24992
24992
24992
24992
24992
24992
24992
24992
24992
24992
24992
24992
24992
